141
1000000
193173
165073
398787
278174
194164
277795
384554
300905
39190
420397
245882
371867
365174
331949
357264
455757
477643
45229
315378
144459
207311
330538
34617
372124
3351
34084
270819
211494
295435
56054
439767
347072
254120
171284
71458
377254
124530
325503
304365
172376
164948
364115
128034
138175
226859
120808
326386
283278
149073
419649
378973
161446
316348
179174
128224
494579
253654
63219
117296
64105
470389
76982
249069
840
334157
45839
15186
399109
116965
11906
46531
29997
20587
147100
7071
313463
50805
159994
309654
153947
174860
10251
237491
482927
99973
474646
497411
345722
92082
327166
10153
411136
182472
79
37200
415107
24058
97676
251301
269288
24722
142933
389767
125335
202046
98196
33559
105644
278843
115143
60976
193619
175396
189592
346929
409904
327673
190330
288648
53608
297474
50721
292965
369907
86502
168423
150143
92650
115843
277318
121981
153387
344499
407375
137539
127516
305868
132738
282343
162920
123722
